nK = 2579;
nT = 8;
nI = 21;
L = 35;
TT = 552;
np = 1;
nc = 3;
b = [62, 41, 26, 55, 33, 29, 37, 38, 50, 37, 42, 42, 21, 28, 42, 49, 33, 57, 51, 62, 63];
d = [126, 77, 51, 84, 139, 50, 85, 101, 88, 89, 149, 135, 50, 128, 126, 95, 75, 96, 91, 117, 137];
m = [1.1, 2, 2.3, 1.9, 1.2, 1.1, 2.4, 2, 1.2, 2.4, 2.3, 1.1, 1.7, 1.1, 1, 1, 2.3, 1.7, 1.1, 2.5, 2.1];
pt = [0.29, 0.28, 0.33, 0.21, 0.35, 0.35, 0.27, 0.3];
st = [15.66, 15.4, 18.15, 10.5, 18.9, 15.4, 15.93, 12.3];
arc = {<1, 0, 1, 1, 0, 0, 0, [1, 1, 1, 1, 1, 1, 1, 1]>, <2, 1, 2, 1, 0, 0, 0, [1, 1, 1, 1, 1, 1, 1, 1]>, <3, 2, 3, 1, 0, 0, 0, [1, 1, 1, 1, 1, 1, 1, 1]>, <4, 3, 4, 1, 0, 0, 0, [1, 1, 1, 1, 1, 1, 1, 1]>, <5, 4, 5, 1, 0, 0, 0, [1, 1, 1, 1, 1, 1, 1, 1]>, <6, 5, 6, 1, 0, 0, 0, [1, 1, 1, 1, 1, 1, 1, 1]>, <7, 6, 7, 1, 0, 0, 0, [1, 1, 1, 1, 1, 1, 1, 1]>, <8, 7, 8, 1, 0, 0, 0, [1, 1, 1, 1, 1, 1, 1, 1]>, <9, 8, 9, 1, 0, 0, 0, [1, 1, 1, 1, 1, 1, 1, 1]>, <10, 9, 10, 1, 0, 0, 0, [1, 1, 1, 1, 1, 1, 1, 1]>, <11, 10, 11, 1, 0, 0, 0, [1, 1, 1, 1, 1, 1, 1, 1]>, <12, 11, 12, 1, 0, 0, 0, [1, 1, 1, 1, 1, 1, 1, 1]>, <13, 12, 13, 1, 0, 0, 0, [1, 1, 1, 1, 1, 1, 1, 1]>, <14, 13, 14, 1, 0, 0, 0, [1, 1, 1, 1, 1, 1, 1, 1]>, <15, 14, 15, 1, 0, 0, 0, [1, 1, 1, 1, 1, 1, 1, 1]>, <16, 15, 16, 1, 0, 0, 0, [1, 1, 1, 1, 1, 1, 1, 1]>, <17, 16, 17, 1, 0, 0, 0, [1, 1, 1, 1, 1, 1, 1, 1]>, <18, 17, 18, 1, 0, 0, 0, [1, 1, 1, 1, 1, 1, 1, 1]>, <19, 18, 19, 1, 0, 0, 0, [1, 1, 1, 1, 1, 1, 1, 1]>, <20, 19, 20, 1, 0, 0, 0, [1, 1, 1, 1, 1, 1, 1, 1]>, <21, 20, 21, 1, 0, 0, 0, [1, 1, 1, 1, 1, 1, 1, 1]>, <22, 21, 22, 1, 0, 0, 0, [1, 1, 1, 1, 1, 1, 1, 1]>, <23, 22, 23, 1, 0, 0, 0, [1, 1, 1, 1, 1, 1, 1, 1]>, <24, 23, 24, 1, 0, 0, 0, [1, 1, 1, 1, 1, 1, 1, 1]>, <25, 24, 25, 1, 0, 0, 0, [1, 1, 1, 1, 1, 1, 1, 1]>, <26, 25, 26, 1, 0, 0, 0, [1, 1, 1, 1, 1, 1, 1, 1]>, <27, 26, 27, 1, 0, 0, 0, [1, 1, 1, 1, 1, 1, 1, 1]>, <28, 27, 28, 1, 0, 0, 0, [1, 1, 1, 1, 1, 1, 1, 1]>, <29, 28, 29, 1, 0, 0, 0, [1, 1, 1, 1, 1, 1, 1, 1]>, <30, 29, 30, 1, 0, 0, 0, [1, 1, 1, 1, 1, 1, 1, 1]>, <31, 30, 31, 1, 0, 0, 0, [1, 1, 1, 1, 1, 1, 1, 1]>, <32, 31, 32, 1, 0, 0, 0, [1, 1, 1, 1, 1, 1, 1, 1]>, <33, 32, 33, 1, 0, 0, 0, [1, 1, 1, 1, 1, 1, 1, 1]>, <34, 33, 34, 1, 0, 0, 0, [1, 1, 1, 1, 1, 1, 1, 1]>, <35, 34, 35, 1, 0, 0, 0, [1, 1, 1, 1, 1, 1, 1, 1]>, <36, 0, 17, 17, 1, 0, 0, [0, 1, 1, 0, 0, 0, 0, 0]>, <37, 1, 18, 17, 1, 0, 0, [0, 1, 1, 0, 0, 0, 0, 0]>, <38, 2, 19, 17, 1, 0, 0, [0, 1, 1, 0, 0, 0, 0, 0]>, <39, 3, 20, 17, 1, 0, 0, [0, 1, 1, 0, 0, 0, 0, 0]>, <40, 4, 21, 17, 1, 0, 0, [0, 1, 1, 0, 0, 0, 0, 0]>, <41, 5, 22, 17, 1, 0, 0, [0, 1, 1, 0, 0, 0, 0, 0]>, <42, 6, 23, 17, 1, 0, 0, [0, 1, 1, 0, 0, 0, 0, 0]>, <43, 9, 26, 17, 1, 0, 0, [0, 1, 1, 0, 0, 0, 0, 0]>, <44, 10, 27, 17, 1, 0, 0, [0, 1, 1, 0, 0, 0, 0, 0]>, <45, 11, 28, 17, 1, 0, 0, [0, 1, 1, 0, 0, 0, 0, 0]>, <46, 12, 29, 17, 1, 0, 0, [0, 1, 1, 0, 0, 0, 0, 0]>, <47, 13, 30, 17, 1, 0, 0, [0, 1, 1, 0, 0, 0, 0, 0]>, <48, 14, 31, 17, 1, 0, 0, [0, 1, 1, 0, 0, 0, 0, 0]>, <49, 15, 32, 17, 1, 0, 0, [0, 1, 1, 0, 0, 0, 0, 0]>, <50, 16, 33, 17, 1, 0, 0, [0, 1, 1, 0, 0, 0, 0, 0]>, <51, 17, 34, 17, 1, 0, 0, [0, 1, 1, 0, 0, 0, 0, 0]>, <52, 18, 35, 17, 1, 0, 0, [0, 1, 1, 0, 0, 0, 0, 0]>, <53, 4, 17, 13, 2, 1, 0, [1, 0, 0, 0, 0, 0, 0, 1]>, <54, 5, 18, 13, 2, 1, 0, [1, 0, 0, 0, 0, 0, 0, 1]>, <55, 6, 19, 13, 2, 1, 0, [1, 0, 0, 0, 0, 0, 0, 1]>, <56, 13, 26, 13, 2, 1, 0, [1, 0, 0, 0, 0, 0, 0, 1]>, <57, 14, 27, 13, 2, 1, 0, [1, 0, 0, 0, 0, 0, 0, 1]>, <58, 15, 28, 13, 2, 1, 0, [1, 0, 0, 0, 0, 0, 0, 1]>, <59, 18, 31, 13, 2, 1, 0, [1, 0, 0, 0, 0, 0, 0, 1]>, <60, 19, 32, 13, 2, 1, 0, [1, 0, 0, 0, 0, 0, 0, 1]>, <61, 20, 33, 13, 2, 1, 0, [1, 0, 0, 0, 0, 0, 0, 1]>, <62, 21, 34, 13, 2, 1, 0, [1, 0, 0, 0, 0, 0, 0, 1]>, <63, 22, 35, 13, 2, 1, 0, [1, 0, 0, 0, 0, 0, 0, 1]>, <64, 3, 17, 14, 3, 0, 1, [1, 1, 0, 0, 0, 0, 0, 0]>, <65, 4, 18, 14, 3, 0, 1, [1, 1, 0, 0, 0, 0, 0, 0]>, <66, 5, 19, 14, 3, 0, 1, [1, 1, 0, 0, 0, 0, 0, 0]>, <67, 6, 20, 14, 3, 0, 1, [1, 1, 0, 0, 0, 0, 0, 0]>, <68, 12, 26, 14, 3, 0, 1, [1, 1, 0, 0, 0, 0, 0, 0]>, <69, 13, 27, 14, 3, 0, 1, [1, 1, 0, 0, 0, 0, 0, 0]>, <70, 14, 28, 14, 3, 0, 1, [1, 1, 0, 0, 0, 0, 0, 0]>, <71, 15, 29, 14, 3, 0, 1, [1, 1, 0, 0, 0, 0, 0, 0]>, <72, 17, 31, 14, 3, 0, 1, [1, 1, 0, 0, 0, 0, 0, 0]>, <73, 18, 32, 14, 3, 0, 1, [1, 1, 0, 0, 0, 0, 0, 0]>, <74, 19, 33, 14, 3, 0, 1, [1, 1, 0, 0, 0, 0, 0, 0]>, <75, 20, 34, 14, 3, 0, 1, [1, 1, 0, 0, 0, 0, 0, 0]>, <76, 21, 35, 14, 3, 0, 1, [1, 1, 0, 0, 0, 0, 0, 0]>, <77, 4, 17, 13, 4, 0, 0, [0, 0, 0, 0, 1, 1, 0, 0]>, <78, 5, 18, 13, 4, 0, 0, [0, 0, 0, 0, 1, 1, 0, 0]>, <79, 6, 19, 13, 4, 0, 0, [0, 0, 0, 0, 1, 1, 0, 0]>, <80, 13, 26, 13, 4, 0, 0, [0, 0, 0, 0, 1, 1, 0, 0]>, <81, 14, 27, 13, 4, 0, 0, [0, 0, 0, 0, 1, 1, 0, 0]>, <82, 15, 28, 13, 4, 0, 0, [0, 0, 0, 0, 1, 1, 0, 0]>, <83, 18, 31, 13, 4, 0, 0, [0, 0, 0, 0, 1, 1, 0, 0]>, <84, 19, 32, 13, 4, 0, 0, [0, 0, 0, 0, 1, 1, 0, 0]>, <85, 20, 33, 13, 4, 0, 0, [0, 0, 0, 0, 1, 1, 0, 0]>, <86, 21, 34, 13, 4, 0, 0, [0, 0, 0, 0, 1, 1, 0, 0]>, <87, 22, 35, 13, 4, 0, 0, [0, 0, 0, 0, 1, 1, 0, 0]>, <88, 3, 17, 14, 5, 1, 0, [0, 0, 0, 0, 0, 1, 1, 0]>, <89, 4, 18, 14, 5, 1, 0, [0, 0, 0, 0, 0, 1, 1, 0]>, <90, 5, 19, 14, 5, 1, 0, [0, 0, 0, 0, 0, 1, 1, 0]>, <91, 6, 20, 14, 5, 1, 0, [0, 0, 0, 0, 0, 1, 1, 0]>, <92, 12, 26, 14, 5, 1, 0, [0, 0, 0, 0, 0, 1, 1, 0]>, <93, 13, 27, 14, 5, 1, 0, [0, 0, 0, 0, 0, 1, 1, 0]>, <94, 14, 28, 14, 5, 1, 0, [0, 0, 0, 0, 0, 1, 1, 0]>, <95, 15, 29, 14, 5, 1, 0, [0, 0, 0, 0, 0, 1, 1, 0]>, <96, 17, 31, 14, 5, 1, 0, [0, 0, 0, 0, 0, 1, 1, 0]>, <97, 18, 32, 14, 5, 1, 0, [0, 0, 0, 0, 0, 1, 1, 0]>, <98, 19, 33, 14, 5, 1, 0, [0, 0, 0, 0, 0, 1, 1, 0]>, <99, 20, 34, 14, 5, 1, 0, [0, 0, 0, 0, 0, 1, 1, 0]>, <100, 21, 35, 14, 5, 1, 0, [0, 0, 0, 0, 0, 1, 1, 0]>, <101, 3, 17, 14, 6, 0, 0, [0, 1, 1, 0, 0, 0, 0, 0]>, <102, 4, 18, 14, 6, 0, 0, [0, 1, 1, 0, 0, 0, 0, 0]>, <103, 5, 19, 14, 6, 0, 0, [0, 1, 1, 0, 0, 0, 0, 0]>, <104, 6, 20, 14, 6, 0, 0, [0, 1, 1, 0, 0, 0, 0, 0]>, <105, 12, 26, 14, 6, 0, 0, [0, 1, 1, 0, 0, 0, 0, 0]>, <106, 13, 27, 14, 6, 0, 0, [0, 1, 1, 0, 0, 0, 0, 0]>, <107, 14, 28, 14, 6, 0, 0, [0, 1, 1, 0, 0, 0, 0, 0]>, <108, 15, 29, 14, 6, 0, 0, [0, 1, 1, 0, 0, 0, 0, 0]>, <109, 17, 31, 14, 6, 0, 0, [0, 1, 1, 0, 0, 0, 0, 0]>, <110, 18, 32, 14, 6, 0, 0, [0, 1, 1, 0, 0, 0, 0, 0]>, <111, 19, 33, 14, 6, 0, 0, [0, 1, 1, 0, 0, 0, 0, 0]>, <112, 20, 34, 14, 6, 0, 0, [0, 1, 1, 0, 0, 0, 0, 0]>, <113, 21, 35, 14, 6, 0, 0, [0, 1, 1, 0, 0, 0, 0, 0]>, <114, 0, 17, 17, 7, 0, 0, [0, 0, 0, 0, 0, 1, 1, 0]>, <115, 1, 18, 17, 7, 0, 0, [0, 0, 0, 0, 0, 1, 1, 0]>, <116, 2, 19, 17, 7, 0, 0, [0, 0, 0, 0, 0, 1, 1, 0]>, <117, 3, 20, 17, 7, 0, 0, [0, 0, 0, 0, 0, 1, 1, 0]>, <118, 4, 21, 17, 7, 0, 0, [0, 0, 0, 0, 0, 1, 1, 0]>, <119, 5, 22, 17, 7, 0, 0, [0, 0, 0, 0, 0, 1, 1, 0]>, <120, 6, 23, 17, 7, 0, 0, [0, 0, 0, 0, 0, 1, 1, 0]>, <121, 9, 26, 17, 7, 0, 0, [0, 0, 0, 0, 0, 1, 1, 0]>, <122, 10, 27, 17, 7, 0, 0, [0, 0, 0, 0, 0, 1, 1, 0]>, <123, 11, 28, 17, 7, 0, 0, [0, 0, 0, 0, 0, 1, 1, 0]>, <124, 12, 29, 17, 7, 0, 0, [0, 0, 0, 0, 0, 1, 1, 0]>, <125, 13, 30, 17, 7, 0, 0, [0, 0, 0, 0, 0, 1, 1, 0]>, <126, 14, 31, 17, 7, 0, 0, [0, 0, 0, 0, 0, 1, 1, 0]>, <127, 15, 32, 17, 7, 0, 0, [0, 0, 0, 0, 0, 1, 1, 0]>, <128, 16, 33, 17, 7, 0, 0, [0, 0, 0, 0, 0, 1, 1, 0]>, <129, 17, 34, 17, 7, 0, 0, [0, 0, 0, 0, 0, 1, 1, 0]>, <130, 18, 35, 17, 7, 0, 0, [0, 0, 0, 0, 0, 1, 1, 0]>, <131, 2, 17, 15, 8, 0, 0, [0, 0, 0, 1, 1, 0, 0, 0]>, <132, 3, 18, 15, 8, 0, 0, [0, 0, 0, 1, 1, 0, 0, 0]>, <133, 4, 19, 15, 8, 0, 0, [0, 0, 0, 1, 1, 0, 0, 0]>, <134, 5, 20, 15, 8, 0, 0, [0, 0, 0, 1, 1, 0, 0, 0]>, <135, 6, 21, 15, 8, 0, 0, [0, 0, 0, 1, 1, 0, 0, 0]>, <136, 11, 26, 15, 8, 0, 0, [0, 0, 0, 1, 1, 0, 0, 0]>, <137, 12, 27, 15, 8, 0, 0, [0, 0, 0, 1, 1, 0, 0, 0]>, <138, 13, 28, 15, 8, 0, 0, [0, 0, 0, 1, 1, 0, 0, 0]>, <139, 14, 29, 15, 8, 0, 0, [0, 0, 0, 1, 1, 0, 0, 0]>, <140, 15, 30, 15, 8, 0, 0, [0, 0, 0, 1, 1, 0, 0, 0]>, <141, 16, 31, 15, 8, 0, 0, [0, 0, 0, 1, 1, 0, 0, 0]>, <142, 17, 32, 15, 8, 0, 0, [0, 0, 0, 1, 1, 0, 0, 0]>, <143, 18, 33, 15, 8, 0, 0, [0, 0, 0, 1, 1, 0, 0, 0]>, <144, 19, 34, 15, 8, 0, 0, [0, 0, 0, 1, 1, 0, 0, 0]>, <145, 20, 35, 15, 8, 0, 0, [0, 0, 0, 1, 1, 0, 0, 0]>, <146, 1, 17, 16, 9, 0, 1, [1, 0, 0, 0, 0, 0, 0, 1]>, <147, 2, 18, 16, 9, 0, 1, [1, 0, 0, 0, 0, 0, 0, 1]>, <148, 3, 19, 16, 9, 0, 1, [1, 0, 0, 0, 0, 0, 0, 1]>, <149, 4, 20, 16, 9, 0, 1, [1, 0, 0, 0, 0, 0, 0, 1]>, <150, 5, 21, 16, 9, 0, 1, [1, 0, 0, 0, 0, 0, 0, 1]>, <151, 6, 22, 16, 9, 0, 1, [1, 0, 0, 0, 0, 0, 0, 1]>, <152, 10, 26, 16, 9, 0, 1, [1, 0, 0, 0, 0, 0, 0, 1]>, <153, 11, 27, 16, 9, 0, 1, [1, 0, 0, 0, 0, 0, 0, 1]>, <154, 12, 28, 16, 9, 0, 1, [1, 0, 0, 0, 0, 0, 0, 1]>, <155, 13, 29, 16, 9, 0, 1, [1, 0, 0, 0, 0, 0, 0, 1]>, <156, 14, 30, 16, 9, 0, 1, [1, 0, 0, 0, 0, 0, 0, 1]>, <157, 15, 31, 16, 9, 0, 1, [1, 0, 0, 0, 0, 0, 0, 1]>, <158, 16, 32, 16, 9, 0, 1, [1, 0, 0, 0, 0, 0, 0, 1]>, <159, 17, 33, 16, 9, 0, 1, [1, 0, 0, 0, 0, 0, 0, 1]>, <160, 18, 34, 16, 9, 0, 1, [1, 0, 0, 0, 0, 0, 0, 1]>, <161, 19, 35, 16, 9, 0, 1, [1, 0, 0, 0, 0, 0, 0, 1]>, <162, 4, 17, 13, 10, 1, 0, [0, 0, 0, 1, 1, 0, 0, 0]>, <163, 5, 18, 13, 10, 1, 0, [0, 0, 0, 1, 1, 0, 0, 0]>, <164, 6, 19, 13, 10, 1, 0, [0, 0, 0, 1, 1, 0, 0, 0]>, <165, 13, 26, 13, 10, 1, 0, [0, 0, 0, 1, 1, 0, 0, 0]>, <166, 14, 27, 13, 10, 1, 0, [0, 0, 0, 1, 1, 0, 0, 0]>, <167, 15, 28, 13, 10, 1, 0, [0, 0, 0, 1, 1, 0, 0, 0]>, <168, 18, 31, 13, 10, 1, 0, [0, 0, 0, 1, 1, 0, 0, 0]>, <169, 19, 32, 13, 10, 1, 0, [0, 0, 0, 1, 1, 0, 0, 0]>, <170, 20, 33, 13, 10, 1, 0, [0, 0, 0, 1, 1, 0, 0, 0]>, <171, 21, 34, 13, 10, 1, 0, [0, 0, 0, 1, 1, 0, 0, 0]>, <172, 22, 35, 13, 10, 1, 0, [0, 0, 0, 1, 1, 0, 0, 0]>, <173, 3, 17, 14, 11, 0, 0, [0, 0, 0, 1, 1, 0, 0, 0]>, <174, 4, 18, 14, 11, 0, 0, [0, 0, 0, 1, 1, 0, 0, 0]>, <175, 5, 19, 14, 11, 0, 0, [0, 0, 0, 1, 1, 0, 0, 0]>, <176, 6, 20, 14, 11, 0, 0, [0, 0, 0, 1, 1, 0, 0, 0]>, <177, 12, 26, 14, 11, 0, 0, [0, 0, 0, 1, 1, 0, 0, 0]>, <178, 13, 27, 14, 11, 0, 0, [0, 0, 0, 1, 1, 0, 0, 0]>, <179, 14, 28, 14, 11, 0, 0, [0, 0, 0, 1, 1, 0, 0, 0]>, <180, 15, 29, 14, 11, 0, 0, [0, 0, 0, 1, 1, 0, 0, 0]>, <181, 17, 31, 14, 11, 0, 0, [0, 0, 0, 1, 1, 0, 0, 0]>, <182, 18, 32, 14, 11, 0, 0, [0, 0, 0, 1, 1, 0, 0, 0]>, <183, 19, 33, 14, 11, 0, 0, [0, 0, 0, 1, 1, 0, 0, 0]>, <184, 20, 34, 14, 11, 0, 0, [0, 0, 0, 1, 1, 0, 0, 0]>, <185, 21, 35, 14, 11, 0, 0, [0, 0, 0, 1, 1, 0, 0, 0]>, <186, 0, 17, 17, 12, 0, 0, [0, 1, 1, 0, 0, 0, 0, 0]>, <187, 1, 18, 17, 12, 0, 0, [0, 1, 1, 0, 0, 0, 0, 0]>, <188, 2, 19, 17, 12, 0, 0, [0, 1, 1, 0, 0, 0, 0, 0]>, <189, 3, 20, 17, 12, 0, 0, [0, 1, 1, 0, 0, 0, 0, 0]>, <190, 4, 21, 17, 12, 0, 0, [0, 1, 1, 0, 0, 0, 0, 0]>, <191, 5, 22, 17, 12, 0, 0, [0, 1, 1, 0, 0, 0, 0, 0]>, <192, 6, 23, 17, 12, 0, 0, [0, 1, 1, 0, 0, 0, 0, 0]>, <193, 9, 26, 17, 12, 0, 0, [0, 1, 1, 0, 0, 0, 0, 0]>, <194, 10, 27, 17, 12, 0, 0, [0, 1, 1, 0, 0, 0, 0, 0]>, <195, 11, 28, 17, 12, 0, 0, [0, 1, 1, 0, 0, 0, 0, 0]>, <196, 12, 29, 17, 12, 0, 0, [0, 1, 1, 0, 0, 0, 0, 0]>, <197, 13, 30, 17, 12, 0, 0, [0, 1, 1, 0, 0, 0, 0, 0]>, <198, 14, 31, 17, 12, 0, 0, [0, 1, 1, 0, 0, 0, 0, 0]>, <199, 15, 32, 17, 12, 0, 0, [0, 1, 1, 0, 0, 0, 0, 0]>, <200, 16, 33, 17, 12, 0, 0, [0, 1, 1, 0, 0, 0, 0, 0]>, <201, 17, 34, 17, 12, 0, 0, [0, 1, 1, 0, 0, 0, 0, 0]>, <202, 18, 35, 17, 12, 0, 0, [0, 1, 1, 0, 0, 0, 0, 0]>, <203, 1, 17, 16, 13, 1, 0, [1, 0, 0, 0, 0, 0, 0, 1]>, <204, 2, 18, 16, 13, 1, 0, [1, 0, 0, 0, 0, 0, 0, 1]>, <205, 3, 19, 16, 13, 1, 0, [1, 0, 0, 0, 0, 0, 0, 1]>, <206, 4, 20, 16, 13, 1, 0, [1, 0, 0, 0, 0, 0, 0, 1]>, <207, 5, 21, 16, 13, 1, 0, [1, 0, 0, 0, 0, 0, 0, 1]>, <208, 6, 22, 16, 13, 1, 0, [1, 0, 0, 0, 0, 0, 0, 1]>, <209, 10, 26, 16, 13, 1, 0, [1, 0, 0, 0, 0, 0, 0, 1]>, <210, 11, 27, 16, 13, 1, 0, [1, 0, 0, 0, 0, 0, 0, 1]>, <211, 12, 28, 16, 13, 1, 0, [1, 0, 0, 0, 0, 0, 0, 1]>, <212, 13, 29, 16, 13, 1, 0, [1, 0, 0, 0, 0, 0, 0, 1]>, <213, 14, 30, 16, 13, 1, 0, [1, 0, 0, 0, 0, 0, 0, 1]>, <214, 15, 31, 16, 13, 1, 0, [1, 0, 0, 0, 0, 0, 0, 1]>, <215, 16, 32, 16, 13, 1, 0, [1, 0, 0, 0, 0, 0, 0, 1]>, <216, 17, 33, 16, 13, 1, 0, [1, 0, 0, 0, 0, 0, 0, 1]>, <217, 18, 34, 16, 13, 1, 0, [1, 0, 0, 0, 0, 0, 0, 1]>, <218, 19, 35, 16, 13, 1, 0, [1, 0, 0, 0, 0, 0, 0, 1]>, <219, 1, 17, 16, 14, 0, 0, [0, 0, 0, 0, 1, 1, 0, 0]>, <220, 2, 18, 16, 14, 0, 0, [0, 0, 0, 0, 1, 1, 0, 0]>, <221, 3, 19, 16, 14, 0, 0, [0, 0, 0, 0, 1, 1, 0, 0]>, <222, 4, 20, 16, 14, 0, 0, [0, 0, 0, 0, 1, 1, 0, 0]>, <223, 5, 21, 16, 14, 0, 0, [0, 0, 0, 0, 1, 1, 0, 0]>, <224, 6, 22, 16, 14, 0, 0, [0, 0, 0, 0, 1, 1, 0, 0]>, <225, 10, 26, 16, 14, 0, 0, [0, 0, 0, 0, 1, 1, 0, 0]>, <226, 11, 27, 16, 14, 0, 0, [0, 0, 0, 0, 1, 1, 0, 0]>, <227, 12, 28, 16, 14, 0, 0, [0, 0, 0, 0, 1, 1, 0, 0]>, <228, 13, 29, 16, 14, 0, 0, [0, 0, 0, 0, 1, 1, 0, 0]>, <229, 14, 30, 16, 14, 0, 0, [0, 0, 0, 0, 1, 1, 0, 0]>, <230, 15, 31, 16, 14, 0, 0, [0, 0, 0, 0, 1, 1, 0, 0]>, <231, 16, 32, 16, 14, 0, 0, [0, 0, 0, 0, 1, 1, 0, 0]>, <232, 17, 33, 16, 14, 0, 0, [0, 0, 0, 0, 1, 1, 0, 0]>, <233, 18, 34, 16, 14, 0, 0, [0, 0, 0, 0, 1, 1, 0, 0]>, <234, 19, 35, 16, 14, 0, 0, [0, 0, 0, 0, 1, 1, 0, 0]>, <235, 0, 17, 17, 15, 0, 0, [0, 0, 1, 1, 0, 0, 0, 0]>, <236, 1, 18, 17, 15, 0, 0, [0, 0, 1, 1, 0, 0, 0, 0]>, <237, 2, 19, 17, 15, 0, 0, [0, 0, 1, 1, 0, 0, 0, 0]>, <238, 3, 20, 17, 15, 0, 0, [0, 0, 1, 1, 0, 0, 0, 0]>, <239, 4, 21, 17, 15, 0, 0, [0, 0, 1, 1, 0, 0, 0, 0]>, <240, 5, 22, 17, 15, 0, 0, [0, 0, 1, 1, 0, 0, 0, 0]>, <241, 6, 23, 17, 15, 0, 0, [0, 0, 1, 1, 0, 0, 0, 0]>, <242, 9, 26, 17, 15, 0, 0, [0, 0, 1, 1, 0, 0, 0, 0]>, <243, 10, 27, 17, 15, 0, 0, [0, 0, 1, 1, 0, 0, 0, 0]>, <244, 11, 28, 17, 15, 0, 0, [0, 0, 1, 1, 0, 0, 0, 0]>, <245, 12, 29, 17, 15, 0, 0, [0, 0, 1, 1, 0, 0, 0, 0]>, <246, 13, 30, 17, 15, 0, 0, [0, 0, 1, 1, 0, 0, 0, 0]>, <247, 14, 31, 17, 15, 0, 0, [0, 0, 1, 1, 0, 0, 0, 0]>, <248, 15, 32, 17, 15, 0, 0, [0, 0, 1, 1, 0, 0, 0, 0]>, <249, 16, 33, 17, 15, 0, 0, [0, 0, 1, 1, 0, 0, 0, 0]>, <250, 17, 34, 17, 15, 0, 0, [0, 0, 1, 1, 0, 0, 0, 0]>, <251, 18, 35, 17, 15, 0, 0, [0, 0, 1, 1, 0, 0, 0, 0]>, <252, 0, 18, 18, 16, 0, 1, [0, 0, 0, 0, 0, 1, 1, 0]>, <253, 1, 19, 18, 16, 0, 1, [0, 0, 0, 0, 0, 1, 1, 0]>, <254, 2, 20, 18, 16, 0, 1, [0, 0, 0, 0, 0, 1, 1, 0]>, <255, 3, 21, 18, 16, 0, 1, [0, 0, 0, 0, 0, 1, 1, 0]>, <256, 4, 22, 18, 16, 0, 1, [0, 0, 0, 0, 0, 1, 1, 0]>, <257, 5, 23, 18, 16, 0, 1, [0, 0, 0, 0, 0, 1, 1, 0]>, <258, 6, 24, 18, 16, 0, 1, [0, 0, 0, 0, 0, 1, 1, 0]>, <259, 8, 26, 18, 16, 0, 1, [0, 0, 0, 0, 0, 1, 1, 0]>, <260, 9, 27, 18, 16, 0, 1, [0, 0, 0, 0, 0, 1, 1, 0]>, <261, 10, 28, 18, 16, 0, 1, [0, 0, 0, 0, 0, 1, 1, 0]>, <262, 11, 29, 18, 16, 0, 1, [0, 0, 0, 0, 0, 1, 1, 0]>, <263, 12, 30, 18, 16, 0, 1, [0, 0, 0, 0, 0, 1, 1, 0]>, <264, 13, 31, 18, 16, 0, 1, [0, 0, 0, 0, 0, 1, 1, 0]>, <265, 14, 32, 18, 16, 0, 1, [0, 0, 0, 0, 0, 1, 1, 0]>, <266, 15, 33, 18, 16, 0, 1, [0, 0, 0, 0, 0, 1, 1, 0]>, <267, 16, 34, 18, 16, 0, 1, [0, 0, 0, 0, 0, 1, 1, 0]>, <268, 17, 35, 18, 16, 0, 1, [0, 0, 0, 0, 0, 1, 1, 0]>, <269, 0, 17, 17, 17, 1, 0, [0, 0, 0, 1, 1, 0, 0, 0]>, <270, 1, 18, 17, 17, 1, 0, [0, 0, 0, 1, 1, 0, 0, 0]>, <271, 2, 19, 17, 17, 1, 0, [0, 0, 0, 1, 1, 0, 0, 0]>, <272, 3, 20, 17, 17, 1, 0, [0, 0, 0, 1, 1, 0, 0, 0]>, <273, 4, 21, 17, 17, 1, 0, [0, 0, 0, 1, 1, 0, 0, 0]>, <274, 5, 22, 17, 17, 1, 0, [0, 0, 0, 1, 1, 0, 0, 0]>, <275, 6, 23, 17, 17, 1, 0, [0, 0, 0, 1, 1, 0, 0, 0]>, <276, 9, 26, 17, 17, 1, 0, [0, 0, 0, 1, 1, 0, 0, 0]>, <277, 10, 27, 17, 17, 1, 0, [0, 0, 0, 1, 1, 0, 0, 0]>, <278, 11, 28, 17, 17, 1, 0, [0, 0, 0, 1, 1, 0, 0, 0]>, <279, 12, 29, 17, 17, 1, 0, [0, 0, 0, 1, 1, 0, 0, 0]>, <280, 13, 30, 17, 17, 1, 0, [0, 0, 0, 1, 1, 0, 0, 0]>, <281, 14, 31, 17, 17, 1, 0, [0, 0, 0, 1, 1, 0, 0, 0]>, <282, 15, 32, 17, 17, 1, 0, [0, 0, 0, 1, 1, 0, 0, 0]>, <283, 16, 33, 17, 17, 1, 0, [0, 0, 0, 1, 1, 0, 0, 0]>, <284, 17, 34, 17, 17, 1, 0, [0, 0, 0, 1, 1, 0, 0, 0]>, <285, 18, 35, 17, 17, 1, 0, [0, 0, 0, 1, 1, 0, 0, 0]>, <286, 4, 17, 13, 18, 0, 0, [0, 0, 0, 0, 0, 1, 1, 0]>, <287, 5, 18, 13, 18, 0, 0, [0, 0, 0, 0, 0, 1, 1, 0]>, <288, 6, 19, 13, 18, 0, 0, [0, 0, 0, 0, 0, 1, 1, 0]>, <289, 13, 26, 13, 18, 0, 0, [0, 0, 0, 0, 0, 1, 1, 0]>, <290, 14, 27, 13, 18, 0, 0, [0, 0, 0, 0, 0, 1, 1, 0]>, <291, 15, 28, 13, 18, 0, 0, [0, 0, 0, 0, 0, 1, 1, 0]>, <292, 18, 31, 13, 18, 0, 0, [0, 0, 0, 0, 0, 1, 1, 0]>, <293, 19, 32, 13, 18, 0, 0, [0, 0, 0, 0, 0, 1, 1, 0]>, <294, 20, 33, 13, 18, 0, 0, [0, 0, 0, 0, 0, 1, 1, 0]>, <295, 21, 34, 13, 18, 0, 0, [0, 0, 0, 0, 0, 1, 1, 0]>, <296, 22, 35, 13, 18, 0, 0, [0, 0, 0, 0, 0, 1, 1, 0]>, <297, 1, 17, 16, 19, 0, 0, [0, 0, 0, 0, 1, 1, 0, 0]>, <298, 2, 18, 16, 19, 0, 0, [0, 0, 0, 0, 1, 1, 0, 0]>, <299, 3, 19, 16, 19, 0, 0, [0, 0, 0, 0, 1, 1, 0, 0]>, <300, 4, 20, 16, 19, 0, 0, [0, 0, 0, 0, 1, 1, 0, 0]>, <301, 5, 21, 16, 19, 0, 0, [0, 0, 0, 0, 1, 1, 0, 0]>, <302, 6, 22, 16, 19, 0, 0, [0, 0, 0, 0, 1, 1, 0, 0]>, <303, 10, 26, 16, 19, 0, 0, [0, 0, 0, 0, 1, 1, 0, 0]>, <304, 11, 27, 16, 19, 0, 0, [0, 0, 0, 0, 1, 1, 0, 0]>, <305, 12, 28, 16, 19, 0, 0, [0, 0, 0, 0, 1, 1, 0, 0]>, <306, 13, 29, 16, 19, 0, 0, [0, 0, 0, 0, 1, 1, 0, 0]>, <307, 14, 30, 16, 19, 0, 0, [0, 0, 0, 0, 1, 1, 0, 0]>, <308, 15, 31, 16, 19, 0, 0, [0, 0, 0, 0, 1, 1, 0, 0]>, <309, 16, 32, 16, 19, 0, 0, [0, 0, 0, 0, 1, 1, 0, 0]>, <310, 17, 33, 16, 19, 0, 0, [0, 0, 0, 0, 1, 1, 0, 0]>, <311, 18, 34, 16, 19, 0, 0, [0, 0, 0, 0, 1, 1, 0, 0]>, <312, 19, 35, 16, 19, 0, 0, [0, 0, 0, 0, 1, 1, 0, 0]>, <313, 0, 17, 17, 20, 0, 1, [0, 0, 1, 1, 0, 0, 0, 0]>, <314, 1, 18, 17, 20, 0, 1, [0, 0, 1, 1, 0, 0, 0, 0]>, <315, 2, 19, 17, 20, 0, 1, [0, 0, 1, 1, 0, 0, 0, 0]>, <316, 3, 20, 17, 20, 0, 1, [0, 0, 1, 1, 0, 0, 0, 0]>, <317, 4, 21, 17, 20, 0, 1, [0, 0, 1, 1, 0, 0, 0, 0]>, <318, 5, 22, 17, 20, 0, 1, [0, 0, 1, 1, 0, 0, 0, 0]>, <319, 6, 23, 17, 20, 0, 1, [0, 0, 1, 1, 0, 0, 0, 0]>, <320, 9, 26, 17, 20, 0, 1, [0, 0, 1, 1, 0, 0, 0, 0]>, <321, 10, 27, 17, 20, 0, 1, [0, 0, 1, 1, 0, 0, 0, 0]>, <322, 11, 28, 17, 20, 0, 1, [0, 0, 1, 1, 0, 0, 0, 0]>, <323, 12, 29, 17, 20, 0, 1, [0, 0, 1, 1, 0, 0, 0, 0]>, <324, 13, 30, 17, 20, 0, 1, [0, 0, 1, 1, 0, 0, 0, 0]>, <325, 14, 31, 17, 20, 0, 1, [0, 0, 1, 1, 0, 0, 0, 0]>, <326, 15, 32, 17, 20, 0, 1, [0, 0, 1, 1, 0, 0, 0, 0]>, <327, 16, 33, 17, 20, 0, 1, [0, 0, 1, 1, 0, 0, 0, 0]>, <328, 17, 34, 17, 20, 0, 1, [0, 0, 1, 1, 0, 0, 0, 0]>, <329, 18, 35, 17, 20, 0, 1, [0, 0, 1, 1, 0, 0, 0, 0]>, <330, 0, 18, 18, 21, 1, 0, [1, 1, 0, 0, 0, 0, 0, 0]>, <331, 1, 19, 18, 21, 1, 0, [1, 1, 0, 0, 0, 0, 0, 0]>, <332, 2, 20, 18, 21, 1, 0, [1, 1, 0, 0, 0, 0, 0, 0]>, <333, 3, 21, 18, 21, 1, 0, [1, 1, 0, 0, 0, 0, 0, 0]>, <334, 4, 22, 18, 21, 1, 0, [1, 1, 0, 0, 0, 0, 0, 0]>, <335, 5, 23, 18, 21, 1, 0, [1, 1, 0, 0, 0, 0, 0, 0]>, <336, 6, 24, 18, 21, 1, 0, [1, 1, 0, 0, 0, 0, 0, 0]>, <337, 8, 26, 18, 21, 1, 0, [1, 1, 0, 0, 0, 0, 0, 0]>, <338, 9, 27, 18, 21, 1, 0, [1, 1, 0, 0, 0, 0, 0, 0]>, <339, 10, 28, 18, 21, 1, 0, [1, 1, 0, 0, 0, 0, 0, 0]>, <340, 11, 29, 18, 21, 1, 0, [1, 1, 0, 0, 0, 0, 0, 0]>, <341, 12, 30, 18, 21, 1, 0, [1, 1, 0, 0, 0, 0, 0, 0]>, <342, 13, 31, 18, 21, 1, 0, [1, 1, 0, 0, 0, 0, 0, 0]>, <343, 14, 32, 18, 21, 1, 0, [1, 1, 0, 0, 0, 0, 0, 0]>, <344, 15, 33, 18, 21, 1, 0, [1, 1, 0, 0, 0, 0, 0, 0]>, <345, 16, 34, 18, 21, 1, 0, [1, 1, 0, 0, 0, 0, 0, 0]>, <346, 17, 35, 18, 21, 1, 0, [1, 1, 0, 0, 0, 0, 0, 0]>};
